Si1
1.0
        3.8401980400         0.0000000000         0.0000000000
        1.9200990200         3.3257090582         0.0000000000
        1.9200990200         1.1085696861         3.1355085698
   Si
    2
Direct
     0.000000000         0.000000000         0.000000000
     0.250000000         0.250000000         0.250000000
