Cl Cs
1.0
        4.1230001450         0.0000000000         0.0000000000
        0.0000000000         4.1230001450         0.0000000000
        0.0000000000         0.0000000000         4.1230001450
   Cs   Cl
    1    1
Direct
     0.000000000         0.000000000         0.000000000
     0.500000000         0.500000000         0.500000000
