Na
1.0
        3.7157683372         0.0000000000         0.0000000000
       -1.2385895246         3.5032599569         0.0000000000
       -1.2385895246        -1.7516301457         3.0339120222
   Na
    1
Direct
     0.000000000         0.000000000         0.000000000
