 &control
    calculation = 'scf',
    prefix = 'Si_exc1',
    outdir = './outdir/'
    pseudo_dir = '../pseudos/'
 /
 &system
    ibrav =  0, 
    celldm(1) = 10.26, 
    nat =  2, 
    ntyp = 1,
    ecutwfc = 20
 /
 &electrons
    mixing_beta = 0.6
 /

ATOMIC_SPECIES
 Si 28.086  Si.pbe-rrkj.UPF

ATOMIC_POSITIONS (alat)
 Si 0.0 0.0 0.0
 Si 0.25 0.25 0.25

K_POINTS (automatic)
  2 2 2 1 1 1
  
CELL_PARAMETERS (alat)
 -0.5 0.0 0.5
 0.0 
